StudentsNr = 10;
InstructorsNr = 87;
DaysNr = 2;
SlotsPerDay = 15;
AvailabilitySlotsLenght = 3;
RoomNr = 2;
ProgrammNr = 2;
DegreeNr = 3;
RolesNr = 4;
CoursesNr = 9;
InstructorsProgramm = [{2}, {2}, {1}, {2}, {2}, {2}, {2}, {1, 2}, {2}, {1, 2}, {1}, {1}, {1}, {2}, {1}, {2}, {2}, {1, 2}, {1}, {2}, {1}, {1}, {1}, {1}, {2}, {1, 2}, {1}, {1}, {1}, {1}, {2}, {2}, {1}, {1}, {2}, {2}, {1, 2}, {2}, {2}, {2}, {1, 2}, {1}, {1}, {1}, {2}, {2}, {2}, {2}, {2}, {2}, {1}, {2}, {1}, {1}, {1}, {2}, {2}, {1, 2}, {1, 2}, {2}, {1, 2}, {1}, {1}, {1}, {2}, {2}, {1, 2}, {2}, {1}, {1, 2}, {1, 2}, {1}, {2}, {2}, {2}, {2}, {1, 2}, {2}, {1}, {1}, {2}, {1}, {2}, {2}, {2}, {1, 2}, {2}];
InstructorRolesPerProgramm = [|{3, 8, 11, 15, 18, 29, 30, 44, 61, 63, 69, 71, 77, 82}, {8, 11, 19, 22, 29, 33, 42, 43, 54, 55, 61, 62, 67, 69, 71, 72}, {3, 8, 11, 19, 23, 29, 30, 37, 41, 42, 53, 55, 63, 64, 70, 72, 77}, {11, 12, 15, 19, 24, 28, 29, 30, 33, 37, 41, 42, 43, 53, 61, 63, 67, 70, 82}|{2, 6, 8, 9, 18, 20, 31, 32, 35, 48, 50, 57, 60, 61, 71, 73, 74, 76, 77, 83, 84}, {2, 4, 5, 7, 8, 16, 20, 25, 31, 36, 45, 46, 47, 48, 57, 60, 61, 67, 68, 71, 74, 75, 76, 84}, {1, 2, 4, 5, 6, 7, 8, 9, 16, 20, 25, 31, 35, 37, 39, 41, 45, 46, 47, 48, 50, 56, 60, 65, 70, 73, 74, 75, 76, 77, 83}, {4, 7, 16, 25, 32, 37, 38, 40, 41, 46, 50, 56, 60, 61, 65, 67, 68, 70, 76, 84, 85, 87}|];
InstructorsAvailability = [|0, 0, 1, 1, 1, 1, 1, 1, 1, 1, |0, 0, 1, 1, 1, 1, 1, 1, 1, 1, |1, 1, 1, 1, 0, 0, 1, 1, 1, 1, |0, 1, 1, 0, 1, 0, 0, 0, 0, 1, |1, 1, 1, 1, 1, 1, 1, 1, 1, 1, |1, 1, 1, 1, 0, 1, 1, 1, 0, 1, |0, 0, 1, 1, 1, 1, 1, 1, 1, 1, |0, 0, 0, 0, 0, 0, 0, 0, 0, 0, |1, 1, 1, 1, 1, 1, 1, 1, 1, 1, |0, 0, 0, 1, 1, 1, 1, 1, 1, 1, |0, 0, 1, 1, 1, 0, 0, 1, 1, 1, |1, 1, 1, 1, 1, 1, 0, 1, 1, 1, |1, 0, 1, 1, 1, 1, 1, 1, 1, 1, |0, 0, 1, 1, 1, 1, 1, 1, 1, 1, |0, 1, 1, 0, 0, 0, 0, 0, 1, 1, |1, 1, 1, 1, 1, 1, 1, 1, 1, 1, |0, 1, 1, 1, 0, 1, 0, 0, 0, 0, |1, 1, 1, 1, 0, 0, 1, 1, 1, 1, |0, 1, 1, 1, 1, 1, 1, 0, 1, 1, |0, 0, 0, 0, 1, 1, 1, 1, 1, 1, |1, 1, 0, 0, 0, 1, 1, 1, 0, 1, |1, 1, 0, 0, 1, 1, 0, 1, 1, 1, |0, 1, 1, 1, 1, 1, 0, 1, 1, 1, |1, 1, 1, 1, 1, 1, 1, 1, 1, 1, |1, 1, 1, 1, 1, 0, 1, 0, 1, 1, |0, 1, 1, 1, 1, 1, 1, 0, 0, 1, |1, 1, 0, 1, 1, 1, 1, 1, 1, 1, |1, 1, 1, 1, 1, 1, 1, 1, 0, 1, |0, 1, 1, 1, 1, 1, 1, 1, 0, 1, |0, 1, 1, 1, 1, 1, 1, 0, 1, 1, |1, 1, 1, 1, 1, 1, 0, 0, 0, 0, |0, 0, 1, 1, 1, 0, 0, 1, 1, 1, |0, 1, 1, 1, 0, 1, 1, 1, 0, 1, |1, 1, 1, 1, 1, 1, 1, 1, 1, 1, |0, 0, 1, 1, 1, 1, 0, 0, 0, 1, |0, 1, 1, 1, 1, 1, 1, 1, 1, 1, |0, 1, 1, 1, 1, 0, 1, 1, 1, 1, |0, 0, 1, 1, 1, 0, 0, 1, 1, 1, |0, 1, 1, 0, 1, 0, 0, 1, 1, 1, |0, 1, 1, 1, 1, 1, 1, 1, 1, 1, |0, 1, 1, 1, 0, 1, 1, 1, 0, 1, |0, 1, 0, 1, 1, 1, 1, 1, 1, 0, |1, 0, 1, 1, 1, 1, 1, 1, 1, 0, |0, 1, 0, 0, 0, 1, 1, 1, 1, 1, |1, 1, 1, 0, 1, 1, 1, 1, 0, 0, |0, 1, 1, 1, 1, 1, 1, 1, 1, 1, |0, 0, 0, 0, 1, 1, 1, 1, 1, 1, |0, 1, 1, 1, 0, 1, 1, 1, 1, 1, |1, 1, 0, 0, 0, 0, 0, 0, 0, 0, |0, 0, 0, 0, 0, 0, 0, 0, 1, 1, |0, 0, 1, 1, 1, 1, 1, 1, 0, 1, |1, 1, 1, 1, 1, 1, 1, 1, 0, 0, |1, 1, 1, 1, 1, 1, 1, 0, 0, 0, |0, 1, 1, 0, 0, 1, 1, 1, 1, 1, |0, 0, 0, 1, 0, 1, 1, 1, 0, 1, |1, 0, 1, 0, 0, 1, 0, 0, 0, 1, |0, 0, 0, 1, 1, 1, 1, 1, 1, 1, |0, 1, 1, 1, 1, 1, 0, 1, 1, 1, |0, 0, 0, 1, 1, 1, 1, 1, 1, 1, |1, 1, 0, 1, 1, 1, 1, 1, 1, 1, |0, 0, 1, 1, 0, 0, 0, 1, 1, 1, |0, 1, 1, 1, 1, 1, 1, 1, 1, 1, |0, 0, 1, 1, 1, 1, 1, 1, 1, 1, |1, 1, 1, 0, 0, 1, 1, 1, 1, 1, |0, 1, 1, 1, 1, 0, 1, 1, 1, 1, |0, 0, 1, 0, 1, 1, 1, 1, 1, 1, |1, 1, 1, 1, 1, 1, 1, 0, 1, 1, |1, 1, 1, 1, 1, 1, 0, 0, 1, 1, |0, 1, 1, 1, 1, 1, 1, 1, 1, 1, |0, 1, 1, 1, 1, 1, 1, 0, 1, 1, |1, 1, 1, 1, 1, 1, 1, 1, 1, 1, |0, 0, 0, 0, 0, 1, 1, 1, 1, 1, |0, 1, 1, 1, 1, 1, 0, 0, 0, 0, |1, 0, 1, 1, 1, 1, 1, 1, 1, 1, |0, 1, 1, 1, 1, 1, 1, 1, 1, 1, |0, 1, 1, 1, 1, 1, 1, 1, 1, 1, |0, 0, 1, 1, 1, 0, 1, 1, 1, 0, |0, 1, 1, 1, 1, 1, 1, 1, 1, 1, |1, 0, 0, 0, 1, 0, 0, 1, 1, 1, |1, 1, 1, 1, 1, 1, 1, 1, 1, 1, |0, 1, 1, 1, 1, 0, 1, 1, 1, 1, |0, 1, 1, 1, 0, 1, 1, 1, 1, 1, |0, 1, 1, 1, 0, 0, 0, 1, 0, 1, |1, 1, 1, 1, 1, 1, 0, 0, 1, 1, |1, 1, 1, 1, 1, 1, 1, 1, 1, 1, |1, 1, 1, 1, 1, 0, 1, 1, 1, 1, |0, 1, 1, 1, 1, 1, 1, 1, 1, 0|];
StudentsProgramm = [1, 2, 2, 2, 2, 2, 1, 1, 2, 2];
StudentsDegree = [1, 2, 1, 2, 2, 1, 3, 2, 3, 3];
StudentsSupervisorId = [61, 49, 57, 5, 1, 50, 30, 41, 6, 84];
StudentsCourseIds = [{5, 9}, {1, 3, 4, 5, 6, 8, 9}, {1, 2}, {1, 2, 3, 4, 7, 8, 9}, {1, 2, 3, 5, 6, 8, 9}, {1, 3}, {2, 3, 4, 7}, {2, 3, 5, 6, 7, 8, 9}, {3, 4, 5, 6}, {2, 6, 7, 8}];
StudentsAvailability = [|0, 0, 1, 1, 1, 1, 1, 1, 1, 0, |1, 1, 1, 1, 1, 1, 1, 1, 1, 1, |0, 0, 0, 0, 1, 1, 0, 1, 1, 1, |0, 1, 1, 1, 1, 1, 1, 1, 1, 0, |1, 1, 0, 0, 0, 0, 0, 1, 1, 1, |1, 1, 1, 1, 1, 1, 1, 1, 1, 1, |0, 1, 1, 1, 1, 1, 1, 1, 0, 1, |1, 1, 1, 1, 1, 1, 1, 1, 1, 1, |1, 1, 0, 0, 0, 1, 1, 1, 1, 0, |1, 1, 1, 1, 1, 1, 1, 1, 1, 1|];
TheoryticalMinCard = [0, 0, 0, 0, 0, 0, 0, 0, 0, 0];
CoursesInstructorIds = [{3, 5, 6, 9, 11, 12, 14, 16, 19, 20, 24, 30, 32, 41, 42, 45, 47, 48, 49, 52, 55, 56, 58, 60, 61, 62, 63, 66, 67, 69, 72, 77, 82, 84, 85, 87}, {1, 6, 8, 11, 12, 13, 15, 20, 22, 31, 34, 37, 45, 49, 52, 56, 62, 65, 68, 74, 78, 79, 82}, {1, 6, 13, 17, 19, 27, 29, 30, 32, 39, 43, 44, 46, 48, 50, 51, 52, 53, 54, 55, 59, 64, 65, 66, 67, 69, 70, 72, 73, 76, 77, 79, 81, 82, 83, 87}, {3, 10, 22, 25, 27, 30, 37, 55, 57, 75, 87}, {2, 8, 12, 13, 31, 36, 40, 44, 46, 54, 56, 66, 67, 70, 73, 74, 79, 84, 86}, {2, 3, 4, 5, 7, 8, 9, 13, 14, 17, 20, 21, 24, 28, 29, 32, 36, 39, 41, 43, 48, 51, 53, 57, 59, 61, 66, 71, 72, 73, 76, 81, 82, 86}, {2, 5, 7, 8, 9, 10, 12, 13, 16, 18, 19, 20, 21, 23, 24, 25, 26, 28, 29, 30, 32, 34, 35, 36, 37, 38, 39, 40, 41, 45, 48, 50, 51, 52, 56, 57, 58, 59, 60, 62, 64, 66, 67, 68, 71, 74, 76, 77, 79, 83, 84, 85, 86, 87}, {2, 5, 6, 8, 9, 10, 13, 15, 16, 19, 22, 23, 25, 31, 32, 33, 34, 35, 36, 38, 40, 42, 44, 48, 49, 55, 60, 63, 64, 66, 68, 69, 72, 77, 80, 81, 84, 87}, {2, 4, 5, 7, 10, 12, 13, 16, 18, 19, 20, 21, 23, 25, 26, 27, 28, 31, 32, 34, 37, 38, 39, 41, 42, 43, 47, 50, 51, 52, 55, 56, 59, 61, 62, 63, 64, 69, 70, 71, 73, 74, 75, 77, 78, 80, 81, 82, 85, 86, 87}];
RolesDemands = [7, 2, 4, 4];
RolesContinuity = [3];
ExamLen = [2, 1, 2, 1, 1, 2, 2, 1, 2, 2];
LunchTsMinLen = 1;
LunchStarts = [3..11, 19..24];
SupervisorAvailable = 0;
OptimalLunchLenght = [2, 1];
OptimalStartTs = [1, 0];
OptimalFinishTs = [0, 15];
MinimizeRooms = 100;
RolesSoftContinuity = [|1, 2, 3, 4|1, 4, 4, 1|];
SameDegreeInRoom = 0;
Mergeability = 2;
